NAME: burma14
TYPE: TSP
COMMENT: 14-Staedte in Burma (Zaw Win)
DIMENSION: 14
EDGE_WEIGHT_TYPE: GEO
EDGE_WEIGHT_FORMAT: FUNCTION 
DISPLAY_DATA_TYPE: COORD_DISPLAY
NODE_COORD_SECTION
   1  16.47       96.10
   2  16.47       94.44
   3  20.09       92.54
   4  22.39       93.37
   5  25.23       97.24
   6  22.00       96.05
   7  16.30       97.38
   8  19.97       95.52
   9  14.05       98.12
  10  18.53       97.38
EOF